
Gurobi 6.0.4 (win64) logging started 02/10/16 12:10:09


Gurobi 6.0.4 (win64) logging started 02/10/16 12:14:43

Server capacity available on gurobi-preprod.phx.gapinc.dev - running now
Optimize a model with 61 rows, 60 columns and 165 nonzeros
Coefficient statistics:
  Matrix range    [1e+00, 1e+00]
  Objective range [5e-01, 8e+00]
  Bounds range    [0e+00, 0e+00]
  RHS range       [4e+01, 1e+03]
Presolve removed 50 rows and 45 columns
Presolve time: 0.00s
Presolved: 11 rows, 19 columns, 34 nonzeros

Iteration    Objective       Primal Inf.    Dual Inf.      Time
       0    1.7100000e+04   2.040000e+03   0.000000e+00      0s
       5    1.3490000e+04   0.000000e+00   0.000000e+00      0s

Solved in 5 iterations and 0.00 seconds
Optimal objective  1.349000000e+04
